NAME : a280
COMMENT : Tour length 3907
TYPE : TOUR
DIMENSION : 280
TOUR_SECTION
1
2
242
241
240
239
238
237
236
235
245
246
231
232
233
234
244
247
250
251
230
229
228
227
226
225
224
223
222
221
220
217
216
213
212
207
208
253
254
257
258
259
260
261
209
252
255
256
206
205
204
203
202
201
198
197
194
192
191
193
196
195
200
199
145
146
147
148
139
138
137
136
135
134
133
18
17
16
271
272
273
274
275
276
277
4
3
280
279
6
5
19
20
21
128
127
126
125
30
31
32
29
28
27
26
22
25
23
24
14
13
12
11
10
8
7
9
15
33
124
123
122
121
120
119
157
158
159
160
175
161
162
163
164
165
166
167
168
100
99
98
97
96
94
95
93
80
81
82
83
84
85
65
64
58
57
56
55
54
53
52
51
44
45
46
47
48
49
50
63
62
59
66
67
70
69
68
87
113
114
111
110
108
104
103
102
101
169
170
171
172
105
106
173
174
107
109
89
90
91
92
86
116
117
118
61
60
43
42
41
40
39
38
37
35
36
34
115
88
112
79
76
74
73
72
71
75
77
78
132
131
130
129
149
150
178
177
176
181
182
183
184
185
187
188
189
186
190
180
179
151
152
156
153
155
154
144
143
142
141
140
266
267
268
269
270
265
264
263
262
210
211
214
215
218
219
249
248
278
243
1
-1
EOF